p cnf 12 50 
10 -12 -2 0
10 -7 5 0
-7 2 9 0
-12 1 -10 0
7 8 10 0
-3 11 -9 0
-1 8 11 0
-11 9 -7 0
-7 -1 6 0
-7 -12 -8 0
10 7 -5 0
-6 -12 -1 0
7 4 -3 0
5 11 -2 0
2 6 4 0
-10 -2 1 0
3 -12 -2 0
10 7 4 0
-2 8 9 0
-4 -2 -11 0
-4 7 3 0
6 12 -2 0
-5 -12 6 0
9 6 -5 0
-12 -2 -5 0
2 -10 5 0
-12 -1 8 0
-4 -7 -8 0
8 12 -10 0
6 -9 -10 0
7 12 -1 0
5 7 10 0
10 9 -5 0
1 -3 -2 0
8 2 -10 0
-8 2 -7 0
-7 -1 -10 0
-10 -9 6 0
6 2 5 0
12 -7 10 0
5 -7 10 0
-11 2 6 0
-7 4 -10 0
-3 -10 -5 0
12 10 -6 0
-2 -11 -9 0
2 -5 4 0
7 -4 -11 0
10 -5 4 0
-11 -12 10 0
